
******************************************************************************
This program contains Ipopt, a library for large-scale nonlinear optimization.
 Ipopt is released as open source code under the Eclipse Public License (EPL).
         For more information visit http://projects.coin-or.org/Ipopt

This version of Ipopt was compiled from source code available at
    https://github.com/IDAES/Ipopt as part of the Institute for the Design of
    Advanced Energy Systems Process Systems Engineering Framework (IDAES PSE
    Framework) Copyright (c) 2018-2019. See https://github.com/IDAES/idaes-pse.

This version of Ipopt was compiled using HSL, a collection of Fortran codes
    for large-scale scientific computation.  All technical papers, sales and
    publicity material resulting from use of the HSL codes within IPOPT must
    contain the following acknowledgement:
        HSL, a collection of Fortran codes for large-scale scientific
        computation. See http://www.hsl.rl.ac.uk.
******************************************************************************

This is Ipopt version 3.13.2, running with linear solver ma27.

Number of nonzeros in equality constraint Jacobian...:      958
Number of nonzeros in inequality constraint Jacobian.:        0
Number of nonzeros in Lagrangian Hessian.............:      832

Total number of variables............................:      416
                     variables with only lower bounds:      128
                variables with lower and upper bounds:      224
                     variables with only upper bounds:        0
Total number of equality constraints.................:      415
Total number of inequality constraints...............:        0
        inequality constraints with only lower bounds:        0
   inequality constraints with lower and upper bounds:        0
        inequality constraints with only upper bounds:        0

iter    objective    inf_pr   inf_du lg(mu)  ||d||  lg(rg) alpha_du alpha_pr  ls
   0  0.0000000e+00 2.98e-01 1.78e-15  -1.0 0.00e+00    -  0.00e+00 0.00e+00   0
   1  7.0796724e-02 2.33e-01 3.27e+03  -1.0 1.16e+05    -  4.89e-01 1.71e-01h  1
   2  7.3503738e-02 2.32e-01 3.25e+03  -1.0 9.76e+04    -  7.95e-01 4.06e-03h  1
   3  5.6240748e+00 1.80e-02 3.00e+04  -1.0 1.38e+05    -  8.31e-01 9.90e-01h  1
   4  6.6370376e+00 3.45e-04 8.67e+02  -1.0 1.35e+04    -  9.73e-01 9.90e-01h  1
   5  6.6567334e+00 3.51e-06 8.83e+00  -1.0 2.51e+02    -  9.90e-01 9.90e-01h  1
   6  6.6573357e+00 3.48e-06 1.19e+07  -1.0 1.74e+03    -  9.90e-01 7.73e-03f  8
   7  6.6594778e+00 3.43e-06 2.36e+07  -1.0 3.09e+03    -  9.91e-01 1.55e-02f  7
   8  6.7925585e+00 1.92e-06 3.60e+05  -1.0 2.97e+03    -  1.00e+00 9.90e-01H  1
   9  6.7944731e+00 2.65e-08 1.24e+07  -1.0 4.25e+01    -  1.00e+00 9.90e-01h  1
iter    objective    inf_pr   inf_du lg(mu)  ||d||  lg(rg) alpha_du alpha_pr  ls
  10  6.7944926e+00 2.66e-10 1.24e+09  -1.0 4.33e-01    -  1.00e+00 9.90e-01h  1
  11  6.7944927e+00 5.68e-11 1.24e+11  -1.0 4.33e-03    -  1.00e+00 9.90e-01h  1
In iteration 11, 32 Slacks too small, adjusting variable bounds
  12  6.7944928e+00 8.67e-12 1.24e+13  -1.0 4.33e-05    -  1.00e+00 9.90e-01h  1
  13  6.7944928e+00 1.00e-11 1.23e+15  -1.0 3.99e-07    -  1.00e+00 9.77e-04h 11
  14  6.7944928e+00 2.04e-11 2.27e-01  -1.0 4.31e-07    -  1.00e+00 1.00e+00s 22
  15  6.6549345e+00 3.12e-05 8.59e-01  -9.0 4.06e+03    -  7.61e-01 7.61e-01s 22
  16  6.6550686e+00 1.96e-09 1.50e-04  -9.0 6.26e+00    -  1.00e+00 1.00e+00s 22

Number of Iterations....: 16

                                   (scaled)                 (unscaled)
Objective...............:   6.6550685563818925e+00    6.6550685563818925e+00
Dual infeasibility......:   1.4962255954742432e-04    1.4962255954742432e-04
Constraint violation....:   1.9645919335786743e-09    1.9645919335786743e-09
Complementarity.........:   3.9436090958386442e-06    3.9436090958386442e-06
Overall NLP error.......:   4.7929144914964836e-09    1.4962255954742432e-04


Number of objective function evaluations             = 69
Number of objective gradient evaluations             = 17
Number of equality constraint evaluations            = 69
Number of inequality constraint evaluations          = 0
Number of equality constraint Jacobian evaluations   = 17
Number of inequality constraint Jacobian evaluations = 0
Number of Lagrangian Hessian evaluations             = 16
Total CPU secs in IPOPT (w/o function evaluations)   =      0.029
Total CPU secs in NLP function evaluations           =      0.513

EXIT: Optimal Solution Found.
